SCIP version 0.82 [precision: 8 byte] [memory: block] [mode: optimized] [LP solver: SOPLEX 1.3.0]
Copyright (c) 2002-2006 Konrad-Zuse-Zentrum fuer Informationstechnik Berlin (ZIB)

reading parameter file <scip.set>

read problem </ufs/psxjm3/instances/random_7.ctt.c.zpl>
============

****************************************************
* Zuse Institute Mathematical Programming Language *
* Release 2.04  Copyright (C)2005 by Thorsten Koch *
****************************************************

original problem has 45450 variables (45450 bin, 0 int, 0 impl, 0 cont) and 5224 constraints

solve problem
=============

LP Solver <SOPLEX 1.3.0>: dual feasibility tolerance cannot be set -- tolerance of SCIP and LP solver may differ
LP Solver <SOPLEX 1.3.0>: barrier convergence tolerance cannot be set -- tolerance of SCIP and LP solver may differ
LP Solver <SOPLEX 1.3.0>: fastmip setting not available -- SCIP parameter has no effect
LP Solver <SOPLEX 1.3.0>: scaling not available -- SCIP parameter has no effect
LP Solver <SOPLEX 1.3.0>: presolving not available -- SCIP parameter has no effect
transformed problem has 45450 variables (45450 bin, 0 int, 0 impl, 0 cont) and 5224 constraints
   5224 constraints of type <linear>

presolving:
(round 1) 6282 del vars, 68 del conss, 6282 chg bounds, 0 chg sides, 0 chg coeffs, 0 upgd conss, 0 impls, 3990 clqs
(round 2) 6282 del vars, 501 del conss, 6282 chg bounds, 0 chg sides, 0 chg coeffs, 0 upgd conss, 0 impls, 3990 clqs
(round 3) 6282 del vars, 3047 del conss, 6282 chg bounds, 2570 chg sides, 0 chg coeffs, 0 upgd conss, 0 impls, 3990 clqs
(round 4) 6282 del vars, 3047 del conss, 6282 chg bounds, 2570 chg sides, 0 chg coeffs, 2020 upgd conss, 0 impls, 3990 clqs
   (10.7s) probing: 100/39168 (0.3%) - 0 fixings, 0 aggregations, 0 implications, 0 bound changes
presolving (5 rounds):
 6282 deleted vars, 3047 deleted constraints, 6282 tightened bounds, 0 added holes, 2570 changed sides, 0 changed coefficients
 0 implications, 3990 cliques
presolved problem has 39168 variables (39168 bin, 0 int, 0 impl, 0 cont) and 2177 constraints
   2020 constraints of type <setppc>
    157 constraints of type <linear>
objective value is always integral
Presolving Time: 10.44

 time | node  | left  |LP iter| mem |mdpt |frac |vars |cons |ccons|cols |rows |cuts |confs|strbr|  dualbound   | primalbound  |  gap   
 16.8s|     1 |     0 |  2162 | 117M|   0 | 221 |  39k|2177 |2177 |  39k|2177 |   0 |   0 |   0 | 0.000000e+00 |      --      |    Inf 
 19.0s|     1 |     0 |  2427 | 117M|   0 | 272 |  39k|2177 |2177 |  39k|2183 |   6 |   0 |   0 | 0.000000e+00 |      --      |    Inf 
 23.1s|     1 |     0 |  3128 | 117M|   0 | 357 |  39k|2177 |2177 |  39k|2188 |  11 |   0 |   0 | 0.000000e+00 |      --      |    Inf 
 26.5s|     1 |     0 |  3642 | 117M|   0 | 355 |  39k|2177 |2177 |  39k|2193 |  16 |   0 |   0 | 0.000000e+00 |      --      |    Inf 
 29.6s|     1 |     0 |  4092 | 117M|   0 | 441 |  39k|2177 |2177 |  39k|2197 |  20 |   0 |   0 | 0.000000e+00 |      --      |    Inf 
 31.8s|     1 |     0 |  4309 | 117M|   0 | 499 |  39k|2177 |2177 |  39k|2202 |  25 |   0 |   0 | 0.000000e+00 |      --      |    Inf 
 34.3s|     1 |     0 |  4598 | 117M|   0 | 500 |  39k|2177 |2177 |  39k|2209 |  32 |   0 |   0 | 0.000000e+00 |      --      |    Inf 
F 213s|     1 |     2 |  9829 | 118M|   0 |   0 |  39k|2177 |2177 |  39k|2209 |  32 |   0 |  39 | 0.000000e+00 | 0.000000e+00 |   0.00%

SCIP Status        : problem is solved [optimal solution found]
Solving Time (sec) : 213.05
Solving Nodes      : 1
Primal Bound       : +0.00000000000000e+00 (1 solutions)
Dual Bound         : +0.00000000000000e+00
Gap                : 0.00 %

primal solution:
================

objective value:                                    0
Taught#1#1#39                                       1 	(obj:0)
Taught#1#2#5                                        1 	(obj:0)
Taught#1#3#78                                       1 	(obj:0)
Taught#1#4#48                                       1 	(obj:0)
Taught#1#5#8                                        1 	(obj:0)
Taught#1#6#79                                       1 	(obj:0)
Taught#1#7#12                                       1 	(obj:0)
Taught#1#8#71                                       1 	(obj:0)
Taught#1#9#83                                       1 	(obj:0)
Taught#1#10#82                                      1 	(obj:0)
Taught#1#11#4                                       1 	(obj:0)
Taught#1#12#100                                     1 	(obj:0)
Taught#1#13#7                                       1 	(obj:0)
Taught#1#14#47                                      1 	(obj:0)
Taught#1#15#29                                      1 	(obj:0)
Taught#1#16#50                                      1 	(obj:0)
Taught#1#17#97                                      1 	(obj:0)
Taught#1#18#20                                      1 	(obj:0)
Taught#2#1#90                                       1 	(obj:0)
Taught#2#2#81                                       1 	(obj:0)
Taught#2#3#11                                       1 	(obj:0)
Taught#2#4#47                                       1 	(obj:0)
Taught#2#6#46                                       1 	(obj:0)
Taught#2#7#87                                       1 	(obj:0)
Taught#2#8#42                                       1 	(obj:0)
Taught#2#9#33                                       1 	(obj:0)
Taught#2#10#43                                      1 	(obj:0)
Taught#2#11#52                                      1 	(obj:0)
Taught#2#12#32                                      1 	(obj:0)
Taught#2#14#36                                      1 	(obj:0)
Taught#2#15#31                                      1 	(obj:0)
Taught#2#16#86                                      1 	(obj:0)
Taught#2#17#15                                      1 	(obj:0)
Taught#2#18#9                                       1 	(obj:0)
Taught#3#1#34                                       1 	(obj:0)
Taught#3#2#47                                       1 	(obj:0)
Taught#3#3#66                                       1 	(obj:0)
Taught#3#4#71                                       1 	(obj:0)
Taught#3#5#42                                       1 	(obj:0)
Taught#3#6#95                                       1 	(obj:0)
Taught#3#7#51                                       1 	(obj:0)
Taught#3#8#58                                       1 	(obj:0)
Taught#3#9#63                                       1 	(obj:0)
Taught#3#10#32                                      1 	(obj:0)
Taught#3#11#33                                      1 	(obj:0)
Taught#3#12#87                                      1 	(obj:0)
Taught#3#13#75                                      1 	(obj:0)
Taught#3#14#36                                      1 	(obj:0)
Taught#3#17#84                                      1 	(obj:0)
Taught#4#1#59                                       1 	(obj:0)
Taught#4#2#71                                       1 	(obj:0)
Taught#4#3#46                                       1 	(obj:0)
Taught#4#4#27                                       1 	(obj:0)
Taught#4#5#33                                       1 	(obj:0)
Taught#4#6#86                                       1 	(obj:0)
Taught#4#7#38                                       1 	(obj:0)
Taught#4#9#95                                       1 	(obj:0)
Taught#4#12#37                                      1 	(obj:0)
Taught#4#13#3                                       1 	(obj:0)
Taught#4#14#51                                      1 	(obj:0)
Taught#4#15#75                                      1 	(obj:0)
Taught#4#16#15                                      1 	(obj:0)
Taught#4#18#94                                      1 	(obj:0)
Taught#5#1#19                                       1 	(obj:0)
Taught#5#2#34                                       1 	(obj:0)
Taught#5#3#46                                       1 	(obj:0)
Taught#5#4#80                                       1 	(obj:0)
Taught#5#5#65                                       1 	(obj:0)
Taught#5#6#6                                        1 	(obj:0)
Taught#5#7#74                                       1 	(obj:0)
Taught#5#9#38                                       1 	(obj:0)
Taught#5#10#98                                      1 	(obj:0)
Taught#5#11#41                                      1 	(obj:0)
Taught#5#12#64                                      1 	(obj:0)
Taught#5#13#70                                      1 	(obj:0)
Taught#5#14#93                                      1 	(obj:0)
Taught#5#16#9                                       1 	(obj:0)
Taught#5#17#57                                      1 	(obj:0)
Taught#5#18#99                                      1 	(obj:0)
Taught#6#1#50                                       1 	(obj:0)
Taught#6#2#55                                       1 	(obj:0)
Taught#6#3#85                                       1 	(obj:0)
Taught#6#4#17                                       1 	(obj:0)
Taught#6#5#34                                       1 	(obj:0)
Taught#6#6#58                                       1 	(obj:0)
Taught#6#7#69                                       1 	(obj:0)
Taught#6#9#88                                       1 	(obj:0)
Taught#6#10#66                                      1 	(obj:0)
Taught#6#11#49                                      1 	(obj:0)
Taught#6#12#94                                      1 	(obj:0)
Taught#6#17#53                                      1 	(obj:0)
Taught#6#18#37                                      1 	(obj:0)
Taught#7#1#69                                       1 	(obj:0)
Taught#7#2#55                                       1 	(obj:0)
Taught#7#5#100                                      1 	(obj:0)
Taught#7#11#62                                      1 	(obj:0)
Taught#7#13#96                                      1 	(obj:0)
Taught#7#15#93                                      1 	(obj:0)
Taught#7#17#35                                      1 	(obj:0)
Taught#7#18#91                                      1 	(obj:0)
Taught#8#1#79                                       1 	(obj:0)
Taught#8#3#25                                       1 	(obj:0)
Taught#8#5#6                                        1 	(obj:0)
Taught#8#6#84                                       1 	(obj:0)
Taught#8#7#1                                        1 	(obj:0)
Taught#8#9#39                                       1 	(obj:0)
Taught#8#10#10                                      1 	(obj:0)
Taught#8#11#55                                      1 	(obj:0)
Taught#8#13#30                                      1 	(obj:0)
Taught#8#14#101                                     1 	(obj:0)
Taught#8#15#68                                      1 	(obj:0)
Taught#8#18#64                                      1 	(obj:0)
Taught#9#4#88                                       1 	(obj:0)
Taught#9#5#75                                       1 	(obj:0)
Taught#9#6#7                                        1 	(obj:0)
Taught#9#7#53                                       1 	(obj:0)
Taught#9#9#57                                       1 	(obj:0)
Taught#9#12#74                                      1 	(obj:0)
Taught#9#13#5                                       1 	(obj:0)
Taught#9#14#78                                      1 	(obj:0)
Taught#9#17#81                                      1 	(obj:0)
Taught#10#1#86                                      1 	(obj:0)
Taught#10#4#20                                      1 	(obj:0)
Taught#10#5#28                                      1 	(obj:0)
Taught#10#6#68                                      1 	(obj:0)
Taught#10#7#73                                      1 	(obj:0)
Taught#10#10#72                                     1 	(obj:0)
Taught#10#12#39                                     1 	(obj:0)
Taught#10#13#76                                     1 	(obj:0)
Taught#10#15#96                                     1 	(obj:0)
Taught#10#16#31                                     1 	(obj:0)
Taught#10#17#19                                     1 	(obj:0)
Taught#11#1#68                                      1 	(obj:0)
Taught#11#2#65                                      1 	(obj:0)
Taught#11#5#73                                      1 	(obj:0)
Taught#11#7#21                                      1 	(obj:0)
Taught#11#8#56                                      1 	(obj:0)
Taught#11#12#1                                      1 	(obj:0)
Taught#11#13#4                                      1 	(obj:0)
Taught#11#15#88                                     1 	(obj:0)
Taught#11#16#97                                     1 	(obj:0)
Taught#11#17#11                                     1 	(obj:0)
Taught#12#1#45                                      1 	(obj:0)
Taught#12#3#40                                      1 	(obj:0)
Taught#12#5#92                                      1 	(obj:0)
Taught#12#6#16                                      1 	(obj:0)
Taught#12#7#62                                      1 	(obj:0)
Taught#12#8#72                                      1 	(obj:0)
Taught#12#12#52                                     1 	(obj:0)
Taught#12#13#77                                     1 	(obj:0)
Taught#12#16#17                                     1 	(obj:0)
Taught#12#18#76                                     1 	(obj:0)
Taught#13#2#35                                      1 	(obj:0)
Taught#13#3#7                                       1 	(obj:0)
Taught#13#5#90                                      1 	(obj:0)
Taught#13#6#1                                       1 	(obj:0)
Taught#13#7#77                                      1 	(obj:0)
Taught#13#8#59                                      1 	(obj:0)
Taught#13#9#69                                      1 	(obj:0)
Taught#13#10#98                                     1 	(obj:0)
Taught#13#11#84                                     1 	(obj:0)
Taught#13#13#85                                     1 	(obj:0)
Taught#13#14#92                                     1 	(obj:0)
Taught#13#15#16                                     1 	(obj:0)
Taught#13#16#2                                      1 	(obj:0)
Taught#13#17#49                                     1 	(obj:0)
Taught#14#1#67                                      1 	(obj:0)
Taught#14#7#74                                      1 	(obj:0)
Taught#14#8#96                                      1 	(obj:0)
Taught#14#9#26                                      1 	(obj:0)
Taught#14#11#59                                     1 	(obj:0)
Taught#14#12#89                                     1 	(obj:0)
Taught#14#13#2                                      1 	(obj:0)
Taught#14#15#56                                     1 	(obj:0)
Taught#14#17#85                                     1 	(obj:0)
Taught#15#1#15                                      1 	(obj:0)
Taught#15#2#48                                      1 	(obj:0)
Taught#15#3#13                                      1 	(obj:0)
Taught#15#6#67                                      1 	(obj:0)
Taught#15#8#21                                      1 	(obj:0)
Taught#15#13#51                                     1 	(obj:0)
Taught#15#16#82                                     1 	(obj:0)
Taught#15#17#77                                     1 	(obj:0)
Taught#15#18#22                                     1 	(obj:0)
Taught#16#1#30                                      1 	(obj:0)
Taught#16#2#3                                       1 	(obj:0)
Taught#16#12#23                                     1 	(obj:0)
Taught#16#13#67                                     1 	(obj:0)
Taught#16#14#80                                     1 	(obj:0)
Taught#16#15#58                                     1 	(obj:0)
Taught#16#17#35                                     1 	(obj:0)
Taught#16#18#101                                    1 	(obj:0)
Taught#17#1#86                                      1 	(obj:0)
Taught#17#6#14                                      1 	(obj:0)
Taught#17#8#12                                      1 	(obj:0)
Taught#17#13#21                                     1 	(obj:0)
Taught#17#14#95                                     1 	(obj:0)
Taught#18#3#72                                      1 	(obj:0)
Taught#18#5#74                                      1 	(obj:0)
Taught#18#6#8                                       1 	(obj:0)
Taught#18#8#30                                      1 	(obj:0)
Taught#18#9#61                                      1 	(obj:0)
Taught#18#10#60                                     1 	(obj:0)
Taught#18#11#99                                     1 	(obj:0)
Taught#18#13#26                                     1 	(obj:0)
Taught#18#14#54                                     1 	(obj:0)
Taught#18#17#91                                     1 	(obj:0)
Taught#18#18#78                                     1 	(obj:0)
Taught#19#1#28                                      1 	(obj:0)
Taught#19#2#89                                      1 	(obj:0)
Taught#19#4#13                                      1 	(obj:0)
Taught#19#5#51                                      1 	(obj:0)
Taught#19#6#4                                       1 	(obj:0)
Taught#19#7#80                                      1 	(obj:0)
Taught#19#8#37                                      1 	(obj:0)
Taught#19#13#39                                     1 	(obj:0)
Taught#19#14#12                                     1 	(obj:0)
Taught#19#16#70                                     1 	(obj:0)
Taught#20#1#4                                       1 	(obj:0)
Taught#20#2#99                                      1 	(obj:0)
Taught#20#6#54                                      1 	(obj:0)
Taught#20#9#73                                      1 	(obj:0)
Taught#20#10#70                                     1 	(obj:0)
Taught#20#13#50                                     1 	(obj:0)
Taught#20#14#66                                     1 	(obj:0)
Taught#20#15#23                                     1 	(obj:0)
Taught#20#16#78                                     1 	(obj:0)
Taught#20#17#3                                      1 	(obj:0)
Taught#20#18#18                                     1 	(obj:0)
Taught#21#1#94                                      1 	(obj:0)
Taught#21#3#99                                      1 	(obj:0)
Taught#21#6#24                                      1 	(obj:0)
Taught#21#7#43                                      1 	(obj:0)
Taught#21#8#56                                      1 	(obj:0)
Taught#21#11#19                                     1 	(obj:0)
Taught#21#12#81                                     1 	(obj:0)
Taught#21#13#13                                     1 	(obj:0)
Taught#21#14#63                                     1 	(obj:0)
Taught#21#18#77                                     1 	(obj:0)
Taught#22#1#93                                      1 	(obj:0)
Taught#22#2#70                                      1 	(obj:0)
Taught#22#5#14                                      1 	(obj:0)
Taught#22#6#12                                      1 	(obj:0)
Taught#22#8#5                                       1 	(obj:0)
Taught#22#9#24                                      1 	(obj:0)
Taught#22#11#19                                     1 	(obj:0)
Taught#22#12#63                                     1 	(obj:0)
Taught#22#13#68                                     1 	(obj:0)
Taught#22#14#44                                     1 	(obj:0)
Taught#22#15#32                                     1 	(obj:0)
Taught#22#16#20                                     1 	(obj:0)
Taught#22#17#81                                     1 	(obj:0)
Taught#23#1#88                                      1 	(obj:0)
Taught#23#3#65                                      1 	(obj:0)
Taught#23#4#18                                      1 	(obj:0)
Taught#23#6#45                                      1 	(obj:0)
Taught#23#7#27                                      1 	(obj:0)
Taught#23#8#25                                      1 	(obj:0)
Taught#23#9#1                                       1 	(obj:0)
Taught#23#10#42                                     1 	(obj:0)
Taught#23#11#24                                     1 	(obj:0)
Taught#23#12#22                                     1 	(obj:0)
Taught#23#14#61                                     1 	(obj:0)
Taught#23#15#49                                     1 	(obj:0)
Taught#23#16#79                                     1 	(obj:0)
Taught#23#17#44                                     1 	(obj:0)
Taught#23#18#101                                    1 	(obj:0)
Taught#24#1#60                                      1 	(obj:0)
Taught#24#3#47                                      1 	(obj:0)
Taught#24#4#42                                      1 	(obj:0)
Taught#24#5#46                                      1 	(obj:0)
Taught#24#6#34                                      1 	(obj:0)
Taught#24#7#43                                      1 	(obj:0)
Taught#24#8#75                                      1 	(obj:0)
Taught#24#9#40                                      1 	(obj:0)
Taught#24#10#29                                     1 	(obj:0)
Taught#24#11#22                                     1 	(obj:0)
Taught#24#12#10                                     1 	(obj:0)
Taught#24#13#41                                     1 	(obj:0)
Taught#24#14#63                                     1 	(obj:0)
Taught#24#15#44                                     1 	(obj:0)
Taught#24#16#45                                     1 	(obj:0)
Taught#24#17#83                                     1 	(obj:0)
Taught#24#18#92                                     1 	(obj:0)
Taught#25#1#24                                      1 	(obj:0)
Taught#25#2#40                                      1 	(obj:0)
Taught#25#4#54                                      1 	(obj:0)
Taught#25#5#73                                      1 	(obj:0)
Taught#25#6#33                                      1 	(obj:0)
Taught#25#8#84                                      1 	(obj:0)
Taught#25#9#90                                      1 	(obj:0)
Taught#25#10#91                                     1 	(obj:0)
Taught#25#11#14                                     1 	(obj:0)
Taught#25#12#62                                     1 	(obj:0)
Taught#25#13#48                                     1 	(obj:0)
Taught#25#14#45                                     1 	(obj:0)
Taught#25#15#22                                     1 	(obj:0)
Taught#25#16#79                                     1 	(obj:0)
Taught#25#17#18                                     1 	(obj:0)
Taught#25#18#27                                     1 	(obj:0)

Statistics
==========

SCIP Status        : problem is solved [optimal solution found]
Solving Time       :     213.05
Original Problem   :
  Problem name     : random_7.ctt.c.zpl
  Variables        : 45450 (45450 binary, 0 integer, 0 implicit integer, 0 continuous)
  Constraints      : 5224 initial, 5224 maximal
Presolved Problem  :
  Problem name     : t_random_7.ctt.c.zpl
  Variables        : 39168 (39168 binary, 0 integer, 0 implicit integer, 0 continuous)
  Constraints      : 2177 initial, 2177 maximal
Presolvers         :       Time  FixedVars   AggrVars   ChgTypes  ChgBounds   AddHoles    DelCons   ChgSides   ChgCoefs
  trivial          :       0.03          0          0          0          0          0          0          0          0
  inttobinary      :       0.00          0          0          0          0          0          0          0          0
  dualfix          :       0.02          0          0          0          0          0          0          0          0
  implics          :       0.02          0          0          0          0          0          0          0          0
  probing          :       7.02          0          0          0          0          0          0          0          0
  setppc           :       0.22          0          0          0          0          0          0          0          0
  linear           :       2.71       6282          0          0       6282          0       3047       2570          0
  root node        :          -          0          -          -          0          -          -          -          -
Constraints        :     Number  #Separate #Propagate    #EnfoLP    #EnfoPS    Cutoffs    DomReds       Cuts      Conss   Children
  integral         :          0          0          0          1          0          0          0          0          0          2
  setppc           :       2020          6        201          0          0          0          0          0          0          0
  linear           :        157          6        201          0          0          0          0          0          0          0
Constraint Timings :  TotalTime   Separate  Propagate     EnfoLP     EnfoPS
  integral         :     147.51       0.00       0.00     147.51       0.00
  setppc           :       0.08       0.00       0.08       0.00       0.00
  linear           :       4.88       0.00       4.88       0.00       0.00
Propagators        :       Time      Calls    Cutoffs    DomReds
  rootredcost      :       0.00          0          0          0
  pseudoobj        :       0.00          1          0          0
Conflict Analysis  :       Time      Calls    Success  Conflicts   Literals    Reconvs ReconvLits   LP Iters
  propagation      :       0.00          0          0          0        0.0          0        0.0          -
  infeasible LP    :       0.00          0          0          0        0.0          0        0.0          0
  bound exceed. LP :       0.00          0          0          0        0.0          0        0.0          0
  strong branching :       0.00          0          0          0        0.0          0        0.0          0
  pseudo solution  :       0.00          0          0          0        0.0          0        0.0          -
  applied globally :          -          -          -          0        0.0          -          -          -
  applied locally  :          -          -          -          0        0.0          -          -          -
Separators         :       Time      Calls    Cutoffs    DomReds       Cuts      Conss
  cut pool         :       0.00          5          -          -          3          -    (maximal pool size: 34)
  redcost          :       0.01          6          0          0          0          0
  impliedbounds    :       0.06          6          0          0          0          0
  intobj           :       0.00          0          0          0          0          0
  gomory           :       0.22          6          0          0          0          0
  strongcg         :       0.23          6          0          0          0          0
  cmir             :       4.68          6          0          0          0          0
  clique           :       0.27          6          0          0         29          0
Pricers            :       Time      Calls       Vars
  problem variables:       0.00          0          0
Branching Rules    :       Time      Calls    Cutoffs    DomReds       Cuts      Conss   Children
  relpscost        :     147.51          1          0          0          0          0          2
  pscost           :       0.00          0          0          0          0          0          0
  inference        :       0.00          0          0          0          0          0          0
  mostinf          :       0.00          0          0          0          0          0          0
  leastinf         :       0.00          0          0          0          0          0          0
  fullstrong       :       0.00          0          0          0          0          0          0
  allfullstrong    :       0.00          0          0          0          0          0          0
Primal Heuristics  :       Time      Calls      Found
  LP solutions     :       0.00          -          0
  pseudo solutions :       0.00          -          0
  octane           :       0.00          0          0
  simplerounding   :       0.01          7          0
  rounding         :       0.24          7          0
  shifting         :       1.15          7          0
  fixandinfer      :       0.00          0          0
  feaspump         :      31.26          1          1
  coefdiving       :       0.00          0          0
  pscostdiving     :       0.00          0          0
  fracdiving       :       0.00          0          0
  intdiving        :       0.00          0          0
  objpscostdiving  :       0.00          0          0
  rootsoldiving    :       0.00          0          0
  linesearchdiving :       0.00          0          0
  guideddiving     :       0.00          0          0
  rins             :       0.00          0          0
  localbranching   :       0.00          0          0
  crossover        :       0.00          0          0
LP                 :       Time      Calls Iterations  Iter/call   Iter/sec
  primal LP        :       0.00          0          0       0.00          -
  dual LP          :      16.04          7       4598     656.86     286.66
  barrier LP       :       0.00          0          0       0.00          -
  diving/probing LP:      31.15          1       5231    5231.00     167.93
  strong branching :     147.51         39      31302     802.62     212.20
    (at root node) :          -         39      31302     802.62          -
  conflict analysis:       0.00          0          0       0.00          -
B&B Tree           :
  number of runs   :          1
  nodes            :          1
  nodes (total)    :          1
  nodes left       :          0
  max depth        :          0
  max depth (total):          0
  backtracks       :          0 (0.0%)
  delayed cutoffs  :          0
  repropagations   :          0 (0 domain reductions, 0 cutoffs)
  avg switch length:       2.00
  switching time   :       0.00
Solution           :
  Solutions found  :          1 (1 improvements)
  Primal Bound     : +0.00000000000000e+00   (in run 1, after 1 nodes, 212.98 seconds, depth 0, found by <feaspump>)
  Dual Bound       : +0.00000000000000e+00
  Gap              :       0.00 %
  Root Dual Bound  : +0.00000000000000e+00
cp: copying multiple files, but last argument `/home/psxjm3/' is not a directory
Try `cp --help' for more information.
